set T := 0 1 2 3;
set S := 0 1 2 3 4 5 6 7 8 9 10 11 12 13 14;
param Tnum := 3;
param c : 0 1 2 3 4 5 6 7 8 9 10 11 12 13 14 :=
0    1 0 0 0 0 0 0 0 0 0 0 0 0 0 0
1    0 1 1 0 0 0 0 0 0 0 0 0 0 0 0
2    0 0 0 1 1 1 1 0 0 0 0 0 0 0 0
3    0 0 0 0 0 0 0 1 1 1 1 1 1 1 1
;
param ps := 
0 0
1 0
2 0
3 1
4 1
5 2
6 2
7 3
8 3
9 4
10 4
11 5
12 5
13 6
14 6
;
param prod:  0 1 2 3 4 5 6 7 8 9 10 11 12 13 14 :=
0    1 0 0 0 0 0 0 0 0 0 0 0 0 0 0
1    0.000000 0.578947 0.421053 0.000000 0.000000 0.000000 0.000000 0.000000 0.000000 0.000000 0.000000 0.000000 0.000000 0.000000 0.000000
2    0.000000 0.000000 0.000000 0.323308 0.255639 0.210526 0.210526 0.000000 0.000000 0.000000 0.000000 0.000000 0.000000 0.000000 0.000000
3    0.000000 0.000000 0.000000 0.000000 0.000000 0.000000 0.000000 0.187970 0.135338 0.120301 0.135338 0.120301 0.090226 0.105263 0.105263
;
param v:  0 1 2 3 4 5 6 7 8 9 10 11 12 13 14 :=
0    0 0 0 0 0 0 0 0 0 0 0 0 0 0 0
1    0.000000 2619.941740 4112.366649 0.000000 0.000000 0.000000 0.000000 0.000000 0.000000 0.000000 0.000000 0.000000 0.000000 0.000000 0.000000
2    0.000000 0.000000 0.000000 2619.941740 4112.366649 2619.941740 4112.366649 0.000000 0.000000 0.000000 0.000000 0.000000 0.000000 0.000000 0.000000
3    0.000000 0.000000 0.000000 0.000000 0.000000 0.000000 0.000000 2619.941740 4112.366649 2619.941740 4112.366649 2619.941740 4112.366649 2619.941740 4112.366649
;
